(declare-sort $$unsorted 0)
(declare-fun tptp.op ($$unsorted $$unsorted) $$unsorted)
(assert (forall ((X0 $$unsorted) (X1 $$unsorted) (X2 $$unsorted) (X3 $$unsorted)) (= (tptp.op (tptp.op X0 X0) X1) (tptp.op (tptp.op X2 X0) X0))))
(assert (not (forall ((X0 $$unsorted) (X1 $$unsorted) (X2 $$unsorted) (X3 $$unsorted)) (= (tptp.op (tptp.op X0 X0) X1) (tptp.op (tptp.op X2 X3) X3)))))
(set-info :filename Equation4614_implies_Equation4627)
(check-sat-assuming ( true ))
